decision_x1=[0,4];
decision_x2=[0,4];
decision_x3=[0,4];
decision_x4=[0,4];
decision_x5=[0,4];
decision_x6=[0,4];
decision_x7=[0,4];
decision_x8=[0,4];
random_y1=[0,4];
random_y2=[0,4];
random_y3=[0,4];
random_y4=[0,4];
constraint_x2_x1=[
0,1,9.3|
0,2,0.54|
0,3,2.2|
0,4,1.1|
1,0,8.9|
1,2,9.1|
1,3,7.8|
1,4,6.1|
2,0,4.9|
2,1,1.3|
2,3,9.4|
2,4,4.4|
3,0,1.2|
3,1,5.8|
3,2,6.7|
3,4,6.8|
4,0,3.4|
4,1,4.8|
4,2,2.6|
4,3,0.38|
];
constraint_x3_x1=[
0,1,1.4|
0,2,3.2|
0,3,7.2|
0,4,9.8|
1,0,8.8|
1,2,4.4|
1,3,1.1|
1,4,7.1|
2,0,7.9|
2,1,0.89|
2,3,3.2|
2,4,3|
3,0,3.7|
3,1,1.9|
3,2,9.4|
3,4,4.2|
4,0,4|
4,1,5.8|
4,2,0.75|
4,3,6.5|
];
constraint_x4_x1=[
0,1,8.8|
0,2,7.3|
0,3,2.6|
0,4,1|
1,0,7.4|
1,2,8.7|
1,3,6.6|
1,4,3.8|
2,0,7.8|
2,1,6.3|
2,3,5.6|
2,4,7.6|
3,0,1.9|
3,1,3.2|
3,2,6.7|
3,4,5.4|
4,0,9|
4,1,2.2|
4,2,4.2|
4,3,2.6|
];
constraint_x5_x1=[
0,1,2|
0,2,5|
0,3,2.3|
0,4,10|
1,0,3.8|
1,2,2.4|
1,3,9.2|
1,4,0.71|
2,0,3.2|
2,1,3.1|
2,3,2.8|
2,4,5.9|
3,0,1.4|
3,1,4|
3,2,0.29|
3,4,9.3|
4,0,0.03|
4,1,5.3|
4,2,4.5|
4,3,5.3|
];
constraint_x5_x2=[
0,1,8.6|
0,2,7|
0,3,0.43|
0,4,8.4|
1,0,3.3|
1,2,6.8|
1,3,3|
1,4,5.9|
2,0,0.46|
2,1,2.2|
2,3,5.7|
2,4,7.4|
3,0,7.3|
3,1,5.4|
3,2,7.6|
3,4,0.16|
4,0,9|
4,1,7.4|
4,2,5.5|
4,3,2.5|
];
constraint_x5_x4=[
0,1,6.7|
0,2,7.1|
0,3,7|
0,4,0.3|
1,0,3.3|
1,2,0.38|
1,3,9.9|
1,4,2.4|
2,0,6|
2,1,1.5|
2,3,8.4|
2,4,5.9|
3,0,9.3|
3,1,0.16|
3,2,0.99|
3,4,8.5|
4,0,2.6|
4,1,2.8|
4,2,1.5|
4,3,1.5|
];
constraint_x6_x1=[
0,1,5.1|
0,2,7.2|
0,3,8.6|
0,4,5.1|
1,0,6.5|
1,2,9.2|
1,3,6.1|
1,4,2.3|
2,0,9.2|
2,1,4.3|
2,3,4.8|
2,4,0.8|
3,0,5.1|
3,1,0.34|
3,2,9.6|
3,4,2.9|
4,0,9.4|
4,1,6.3|
4,2,8.7|
4,3,9.9|
];
constraint_x6_x5=[
0,1,3.9|
0,2,9.2|
0,3,4.1|
0,4,0.0073|
1,0,1.4|
1,2,8|
1,3,2|
1,4,1.6|
2,0,1.1|
2,1,1.8|
2,3,7|
2,4,1.2|
3,0,2.9|
3,1,1.2|
3,2,6.8|
3,4,8.8|
4,0,8.8|
4,1,5.7|
4,2,5.9|
4,3,6.5|
];
constraint_x7_x1=[
0,1,7.5|
0,2,1.2|
0,3,4.9|
0,4,4.5|
1,0,2.9|
1,2,1.3|
1,3,4.3|
1,4,4.7|
2,0,9.8|
2,1,1.5|
2,3,9.4|
2,4,7.2|
3,0,8.2|
3,1,6.8|
3,2,0.9|
3,4,5.2|
4,0,1.6|
4,1,9.7|
4,2,5.7|
4,3,3.6|
];
constraint_x7_x2=[
0,1,4.9|
0,2,9.9|
0,3,2.5|
0,4,9.5|
1,0,2.1|
1,2,2.8|
1,3,3.8|
1,4,0.49|
2,0,1.5|
2,1,6.3|
2,3,3.5|
2,4,6.8|
3,0,5.1|
3,1,3.5|
3,2,0.78|
3,4,6.3|
4,0,4.6|
4,1,0.056|
4,2,0.47|
4,3,6.7|
];
constraint_x7_x5=[
0,1,2.1|
0,2,2.5|
0,3,6.3|
0,4,9.1|
1,0,9.8|
1,2,8.3|
1,3,4.3|
1,4,7.7|
2,0,7.9|
2,1,2.1|
2,3,5.9|
2,4,7.4|
3,0,3.9|
3,1,5.3|
3,2,0.34|
3,4,3.7|
4,0,1.9|
4,1,7.1|
4,2,3.7|
4,3,3.6|
];
constraint_x8_x1=[
0,1,8.5|
0,2,8.6|
0,3,1.2|
0,4,4.5|
1,0,2|
1,2,3.7|
1,3,2.3|
1,4,4.7|
2,0,7.8|
2,1,5.9|
2,3,5.8|
2,4,3.4|
3,0,4.9|
3,1,7.7|
3,2,0.24|
3,4,9.3|
4,0,9.4|
4,1,9.4|
4,2,8.3|
4,3,2.7|
];
constraint_x8_x5=[
0,1,2.9|
0,2,2.9|
0,3,3|
0,4,0.52|
1,0,5.1|
1,2,4.7|
1,3,7.4|
1,4,2.3|
2,0,5.6|
2,1,7.3|
2,3,2.9|
2,4,0.44|
3,0,5.3|
3,1,6.6|
3,2,8.7|
3,4,6.8|
4,0,3.7|
4,1,4.9|
4,2,7.4|
4,3,7|
];
constraint_x8_x7=[
0,1,8.5|
0,2,0.28|
0,3,7.5|
0,4,5.2|
1,0,4.4|
1,2,5.7|
1,3,4.6|
1,4,7.3|
2,0,3.3|
2,1,4.9|
2,3,7.3|
2,4,2.4|
3,0,6.3|
3,1,2.4|
3,2,0.14|
3,4,3.1|
4,0,1.4|
4,1,4|
4,2,8.4|
4,3,7.3|
];
constraint_x1_y1=[
0,0,7.8|
0,1,5.6|
0,2,6.6|
0,3,7.2|
0,4,7.9|
1,0,6|
1,1,4.2|
1,2,2.5|
1,3,1.9|
1,4,0.71|
2,0,1.8|
2,1,8.9|
2,2,5.4|
2,3,2.9|
2,4,7.3|
3,0,7.3|
3,1,3.1|
3,2,3.7|
3,3,3.6|
3,4,4|
4,0,5.5|
4,1,8.3|
4,2,0.73|
4,3,3|
4,4,8.6|
];
constraint_x2_y2=[
0,0,5.4|
0,1,5.4|
0,2,0.42|
0,3,1.2|
0,4,9.9|
1,0,8|
1,1,2.2|
1,2,4.7|
1,3,3.9|
1,4,5.3|
2,0,8.5|
2,1,9.6|
2,2,3.1|
2,3,6.8|
2,4,4.3|
3,0,6.7|
3,1,6.1|
3,2,9|
3,3,2.2|
3,4,1.7|
4,0,5.1|
4,1,8.1|
4,2,5.9|
4,3,1.7|
4,4,4.4|
];
constraint_x3_y3=[
0,0,3.6|
0,1,1.5|
0,2,3.4|
0,3,4|
0,4,0.15|
1,0,2.1|
1,1,5.8|
1,2,7.8|
1,3,7.4|
1,4,2.7|
2,0,0.73|
2,1,2.8|
2,2,9|
2,3,6.8|
2,4,4.9|
3,0,5.2|
3,1,3.6|
3,2,2.8|
3,3,1.5|
3,4,8.8|
4,0,0.14|
4,1,0.3|
4,2,8.9|
4,3,8.4|
4,4,0.81|
];
constraint_x4_y4=[
0,0,0.68|
0,1,4.2|
0,2,4.7|
0,3,8.1|
0,4,7.8|
1,0,3.7|
1,1,1.5|
1,2,7.6|
1,3,2.7|
1,4,6.4|
2,0,0.69|
2,1,9.7|
2,2,1.5|
2,3,6.2|
2,4,1.7|
3,0,1|
3,1,1.7|
3,2,3.3|
3,3,5.8|
3,4,5.7|
4,0,3.9|
4,1,4|
4,2,5.6|
4,3,4.7|
4,4,8.2|
];
initial_distribution_y1=[0.079,0.13,0.17,0.32,0.31];
initial_distribution_y2=[0.17,0.24,0.26,0.17,0.17];
initial_distribution_y3=[0.1,0.17,0.09,0.57,0.063];
initial_distribution_y4=[0.015,0.029,0.41,0.079,0.47];
transition_y1=[
0.2,0.06,0.23,0.23,0.27|
0.2,0.35,0.073,0.087,0.29|
0.047,0.15,0.34,0.16,0.31|
0.19,0.24,0.098,0.22,0.26|
0.23,0.027,0.34,0.24,0.17|
];
transition_y2=[
0.22,0.22,0.32,0.19,0.05|
0.22,0.29,0.1,0.069,0.32|
0.19,0.15,0.37,0.029,0.27|
0.14,0.35,0.37,0.08,0.056|
0.26,0.19,0.19,0.3,0.071|
];
transition_y3=[
0.081,0.33,0.31,0.034,0.24|
0.36,0.22,0.2,0.21,0.019|
0.23,0.11,0.16,0.27,0.24|
0.31,0.12,0.078,0.3,0.18|
0.13,0.23,0.11,0.29,0.24|
];
transition_y4=[
0.22,0.13,0.17,0.23,0.26|
0.34,0.02,0.2,0.2,0.24|
0.035,0.27,0.067,0.32,0.3|
0.37,0.14,0.018,0.28,0.19|
0.2,0.25,0.14,0.091,0.32|
];
